# Solution for model pr5_1
# Objective value = 12580
I[0,0] 28
I[0,1] 29
I[0,2] 30
I[0,3] 31
I[0,4] 32
I[0,5] 33
I[0,6] 34
I[0,7] 35
I[0,8] 36
I[0,9] 37
I[0,10] 36
I[0,11] 35
I[0,12] 34
I[0,13] 33
I[0,14] 32
I[0,15] 31
I[0,16] 30
I[0,17] 32
I[0,18] 37
I[0,19] 38
I[0,20] 39
I[0,21] 40
I[0,22] 41
I[0,23] 42
I[0,24] 28
I[1,0] 32
I[1,1] 30
I[1,2] 28
I[1,3] 26
I[1,4] 24
I[1,5] 22
I[1,6] 20
I[1,7] 18
I[1,8] 16
I[1,9] 14
I[1,10] 14
I[1,11] 14
I[1,12] 14
I[1,13] 14
I[1,14] 14
I[1,15] 14
I[1,16] 14
I[1,17] 13
I[1,18] 10
I[1,19] 21
I[1,20] 24
I[1,21] 23
I[1,22] 22
I[1,23] 27
I[1,24] 32
I[2,0] 20
I[2,1] 26
I[2,2] 32
I[2,3] 38
I[2,4] 44
I[2,5] 50
I[2,6] 56
I[2,7] 62
I[2,8] 68
I[2,9] 74
I[2,10] 65
I[2,11] 56
I[2,12] 47
I[2,13] 38
I[2,14] 29
I[2,15] 20
I[2,16] 11
I[2,17] 15
I[2,18] 18
I[2,19] 11
I[2,20] 12
I[2,21] 17
I[2,22] 22
I[2,23] 21
I[2,24] 20
I[3,0] 34
I[3,1] 32
I[3,2] 25
I[3,3] 18
I[3,4] 11
I[3,5] 20
I[3,6] 29
I[3,7] 22
I[3,8] 27
I[3,9] 20
I[3,10] 30
I[3,11] 40
I[3,12] 50
I[3,13] 60
I[3,14] 70
I[3,15] 80
I[3,16] 90
I[3,17] 83
I[3,18] 76
I[3,19] 69
I[3,20] 62
I[3,21] 55
I[3,22] 48
I[3,23] 41
I[3,24] 34
I[4,0] 32
I[4,1] 28
I[4,2] 32
I[4,3] 34
I[4,4] 50
I[4,5] 36
I[4,6] 22
I[4,7] 29
I[4,8] 23
I[4,9] 24
I[4,10] 24
I[4,11] 24
I[4,12] 24
I[4,13] 24
I[4,14] 24
I[4,15] 24
I[4,16] 24
I[4,17] 25
I[4,18] 26
I[4,19] 27
I[4,20] 28
I[4,21] 29
I[4,22] 30
I[4,23] 31
I[4,24] 32
I[5,0] 30
I[5,1] 31
I[5,2] 29
I[5,3] 29
I[5,4] 15
I[5,5] 15
I[5,6] 15
I[5,7] 10
I[5,8] 11
I[5,9] 22
I[5,10] 22
I[5,11] 22
I[5,12] 22
I[5,13] 22
I[5,14] 22
I[5,15] 22
I[5,16] 22
I[5,17] 23
I[5,18] 24
I[5,19] 25
I[5,20] 26
I[5,21] 27
I[5,22] 28
I[5,23] 29
I[5,24] 30
I[6,0] 36
I[6,1] 37
I[6,2] 38
I[6,3] 39
I[6,4] 40
I[6,5] 37
I[6,6] 38
I[6,7] 35
I[6,8] 31
I[6,9] 27
I[6,10] 27
I[6,11] 27
I[6,12] 27
I[6,13] 27
I[6,14] 27
I[6,15] 27
I[6,16] 27
I[6,17] 27
I[6,18] 39
I[6,19] 39
I[6,20] 39
I[6,21] 39
I[6,22] 36
I[6,23] 36
I[6,24] 36
I[7,0] 0
I[7,1] 14
I[7,2] 28
I[7,3] 42
I[7,4] 56
I[7,5] 74
I[7,6] 88
I[7,7] 106
I[7,8] 120
I[7,9] 129
I[7,10] 129
I[7,11] 129
I[7,12] 129
I[7,13] 129
I[7,14] 129
I[7,15] 129
I[7,16] 129
I[7,17] 144
I[7,18] 147
I[7,19] 162
I[7,20] 177
I[7,21] 192
I[7,22] 210
I[7,23] 225
I[7,24] 240
P[0,0] 0
P[0,1] 15
P[0,2] 15
P[0,3] 15
P[0,4] 15
P[0,5] 15
P[0,6] 15
P[0,7] 15
P[0,8] 15
P[0,9] 15
P[0,10] 0
P[0,11] 0
P[0,12] 0
P[0,13] 0
P[0,14] 0
P[0,15] 0
P[0,16] 0
P[0,17] 15
P[0,18] 15
P[0,19] 15
P[0,20] 15
P[0,21] 15
P[0,22] 15
P[0,23] 15
P[0,24] 0
P[1,0] 0
P[1,1] 14
P[1,2] 14
P[1,3] 14
P[1,4] 14
P[1,5] 14
P[1,6] 14
P[1,7] 14
P[1,8] 14
P[1,9] 14
P[1,10] 1
P[1,11] 1
P[1,12] 1
P[1,13] 1
P[1,14] 1
P[1,15] 1
P[1,16] 1
P[1,17] 13
P[1,18] 10
P[1,19] 14
P[1,20] 14
P[1,21] 14
P[1,22] 14
P[1,23] 14
P[1,24] 14
P[2,0] 0
P[2,1] 16
P[2,2] 16
P[2,3] 16
P[2,4] 16
P[2,5] 16
P[2,6] 16
P[2,7] 16
P[2,8] 16
P[2,9] 16
P[2,10] 1
P[2,11] 1
P[2,12] 1
P[2,13] 1
P[2,14] 1
P[2,15] 1
P[2,16] 1
P[2,17] 14
P[2,18] 13
P[2,19] 3
P[2,20] 11
P[2,21] 15
P[2,22] 15
P[2,23] 9
P[2,24] 9
P[3,0] 0
P[3,1] 10
P[3,2] 10
P[3,3] 10
P[3,4] 10
P[3,5] 10
P[3,6] 10
P[3,7] 10
P[3,8] 10
P[3,9] 10
P[3,10] 10
P[3,11] 10
P[3,12] 10
P[3,13] 10
P[3,14] 10
P[3,15] 10
P[3,16] 10
P[3,17] 10
P[3,18] 10
P[3,19] 10
P[3,20] 10
P[3,21] 10
P[3,22] 10
P[3,23] 10
P[3,24] 10
P[4,0] 0
P[4,1] 12
P[4,2] 17
P[4,3] 17
P[4,4] 17
P[4,5] 1
P[4,6] 1
P[4,7] 17
P[4,8] 5
P[4,9] 17
P[4,10] 0
P[4,11] 0
P[4,12] 0
P[4,13] 0
P[4,14] 0
P[4,15] 0
P[4,16] 0
P[4,17] 17
P[4,18] 17
P[4,19] 17
P[4,20] 17
P[4,21] 17
P[4,22] 17
P[4,23] 17
P[4,24] 17
P[5,0] 0
P[5,1] 16
P[5,2] 13
P[5,3] 15
P[5,4] 1
P[5,5] 15
P[5,6] 15
P[5,7] 10
P[5,8] 11
P[5,9] 16
P[5,10] 0
P[5,11] 0
P[5,12] 0
P[5,13] 0
P[5,14] 0
P[5,15] 0
P[5,16] 0
P[5,17] 16
P[5,18] 16
P[5,19] 16
P[5,20] 16
P[5,21] 16
P[5,22] 16
P[5,23] 16
P[5,24] 16
P[6,0] 0
P[6,1] 15
P[6,2] 15
P[6,3] 15
P[6,4] 15
P[6,5] 15
P[6,6] 15
P[6,7] 15
P[6,8] 10
P[6,9] 5
P[6,10] 0
P[6,11] 0
P[6,12] 0
P[6,13] 0
P[6,14] 0
P[6,15] 0
P[6,16] 0
P[6,17] 15
P[6,18] 15
P[6,19] 15
P[6,20] 15
P[6,21] 15
P[6,22] 15
P[6,23] 15
P[6,24] 15
P[7,0] 0
P[7,1] 14
P[7,2] 14
P[7,3] 14
P[7,4] 14
P[7,5] 18
P[7,6] 14
P[7,7] 18
P[7,8] 14
P[7,9] 9
P[7,10] 0
P[7,11] 0
P[7,12] 0
P[7,13] 0
P[7,14] 0
P[7,15] 0
P[7,16] 0
P[7,17] 15
P[7,18] 3
P[7,19] 15
P[7,20] 15
P[7,21] 15
P[7,22] 18
P[7,23] 15
P[7,24] 15
Y[0,0] 1
Y[0,1] 1
Y[0,2] 1
Y[0,3] 1
Y[0,4] 1
Y[0,5] 1
Y[0,6] 1
Y[0,7] 1
Y[0,8] 1
Y[0,9] 1
Y[0,10] 0
Y[0,11] 0
Y[0,12] 0
Y[0,13] 0
Y[0,14] 0
Y[0,15] 0
Y[0,16] 0
Y[0,17] 1
Y[0,18] 1
Y[0,19] 1
Y[0,20] 1
Y[0,21] 1
Y[0,22] 1
Y[0,23] 1
Y[0,24] 0
Y[1,0] 1
Y[1,1] 1
Y[1,2] 1
Y[1,3] 1
Y[1,4] 1
Y[1,5] 1
Y[1,6] 1
Y[1,7] 1
Y[1,8] 1
Y[1,9] 1
Y[1,10] 1
Y[1,11] 1
Y[1,12] 1
Y[1,13] 1
Y[1,14] 1
Y[1,15] 1
Y[1,16] 1
Y[1,17] 1
Y[1,18] 1
Y[1,19] 1
Y[1,20] 1
Y[1,21] 1
Y[1,22] 1
Y[1,23] 1
Y[1,24] 1
Y[2,0] 1
Y[2,1] 1
Y[2,2] 1
Y[2,3] 1
Y[2,4] 1
Y[2,5] 1
Y[2,6] 1
Y[2,7] 1
Y[2,8] 1
Y[2,9] 1
Y[2,10] 1
Y[2,11] 1
Y[2,12] 1
Y[2,13] 1
Y[2,14] 1
Y[2,15] 1
Y[2,16] 1
Y[2,17] 1
Y[2,18] 1
Y[2,19] 1
Y[2,20] 1
Y[2,21] 1
Y[2,22] 1
Y[2,23] 1
Y[2,24] 1
Y[3,0] 1
Y[3,1] 1
Y[3,2] 1
Y[3,3] 1
Y[3,4] 1
Y[3,5] 1
Y[3,6] 1
Y[3,7] 1
Y[3,8] 1
Y[3,9] 1
Y[3,10] 1
Y[3,11] 1
Y[3,12] 1
Y[3,13] 1
Y[3,14] 1
Y[3,15] 1
Y[3,16] 1
Y[3,17] 1
Y[3,18] 1
Y[3,19] 1
Y[3,20] 1
Y[3,21] 1
Y[3,22] 1
Y[3,23] 1
Y[3,24] 1
Y[4,0] 1
Y[4,1] 1
Y[4,2] 1
Y[4,3] 1
Y[4,4] 1
Y[4,5] 1
Y[4,6] 1
Y[4,7] 1
Y[4,8] 1
Y[4,9] 1
Y[4,10] 0
Y[4,11] 0
Y[4,12] 0
Y[4,13] 0
Y[4,14] 0
Y[4,15] 0
Y[4,16] 0
Y[4,17] 1
Y[4,18] 1
Y[4,19] 1
Y[4,20] 1
Y[4,21] 1
Y[4,22] 1
Y[4,23] 1
Y[4,24] 1
Y[5,0] 1
Y[5,1] 1
Y[5,2] 1
Y[5,3] 1
Y[5,4] 1
Y[5,5] 1
Y[5,6] 1
Y[5,7] 1
Y[5,8] 1
Y[5,9] 1
Y[5,10] 0
Y[5,11] 0
Y[5,12] 0
Y[5,13] 0
Y[5,14] 0
Y[5,15] 0
Y[5,16] 0
Y[5,17] 1
Y[5,18] 1
Y[5,19] 1
Y[5,20] 1
Y[5,21] 1
Y[5,22] 1
Y[5,23] 1
Y[5,24] 1
Y[6,0] 1
Y[6,1] 1
Y[6,2] 1
Y[6,3] 1
Y[6,4] 1
Y[6,5] 1
Y[6,6] 1
Y[6,7] 1
Y[6,8] 1
Y[6,9] 1
Y[6,10] 0
Y[6,11] 0
Y[6,12] 0
Y[6,13] 0
Y[6,14] 0
Y[6,15] 0
Y[6,16] 0
Y[6,17] 1
Y[6,18] 1
Y[6,19] 1
Y[6,20] 1
Y[6,21] 1
Y[6,22] 1
Y[6,23] 1
Y[6,24] 1
Y[7,0] 1
Y[7,1] 1
Y[7,2] 1
Y[7,3] 1
Y[7,4] 1
Y[7,5] 1
Y[7,6] 1
Y[7,7] 1
Y[7,8] 1
Y[7,9] 1
Y[7,10] 0
Y[7,11] 0
Y[7,12] 0
Y[7,13] 0
Y[7,14] 0
Y[7,15] 0
Y[7,16] 0
Y[7,17] 1
Y[7,18] 1
Y[7,19] 1
Y[7,20] 1
Y[7,21] 1
Y[7,22] 1
Y[7,23] 1
Y[7,24] 1
S[0,0] 0
S[0,1] 1
S[0,2] 0
S[0,3] 0
S[0,4] 0
S[0,5] 0
S[0,6] 0
S[0,7] 0
S[0,8] 0
S[0,9] 0
S[0,10] 0
S[0,11] 0
S[0,12] 0
S[0,13] 0
S[0,14] 0
S[0,15] 0
S[0,16] 0
S[0,17] 1
S[0,18] 0
S[0,19] 0
S[0,20] 0
S[0,21] 0
S[0,22] 0
S[0,23] 0
S[0,24] 0
S[1,0] 0
S[1,1] 1
S[1,2] 0
S[1,3] 0
S[1,4] 0
S[1,5] 0
S[1,6] 0
S[1,7] 0
S[1,8] 0
S[1,9] 0
S[1,10] 0
S[1,11] 0
S[1,12] 0
S[1,13] 0
S[1,14] 0
S[1,15] 0
S[1,16] 0
S[1,17] 0
S[1,18] 0
S[1,19] 0
S[1,20] 0
S[1,21] 0
S[1,22] 0
S[1,23] 0
S[1,24] 0
S[2,0] 0
S[2,1] 1
S[2,2] 0
S[2,3] 0
S[2,4] 0
S[2,5] 0
S[2,6] 0
S[2,7] 0
S[2,8] 0
S[2,9] 0
S[2,10] 0
S[2,11] 0
S[2,12] 0
S[2,13] 0
S[2,14] 0
S[2,15] 0
S[2,16] 0
S[2,17] 0
S[2,18] 0
S[2,19] 0
S[2,20] 0
S[2,21] 0
S[2,22] 0
S[2,23] 0
S[2,24] 0
S[3,0] 0
S[3,1] 1
S[3,2] 0
S[3,3] 0
S[3,4] 0
S[3,5] 0
S[3,6] 0
S[3,7] 0
S[3,8] 0
S[3,9] 0
S[3,10] 0
S[3,11] 0
S[3,12] 0
S[3,13] 0
S[3,14] 0
S[3,15] 0
S[3,16] 0
S[3,17] 0
S[3,18] 0
S[3,19] 0
S[3,20] 0
S[3,21] 0
S[3,22] 0
S[3,23] 0
S[3,24] 0
S[4,0] 0
S[4,1] 1
S[4,2] 0
S[4,3] 0
S[4,4] 0
S[4,5] 0
S[4,6] 0
S[4,7] 0
S[4,8] 0
S[4,9] 0
S[4,10] 0
S[4,11] 0
S[4,12] 0
S[4,13] 0
S[4,14] 0
S[4,15] 0
S[4,16] 0
S[4,17] 1
S[4,18] 0
S[4,19] 0
S[4,20] 0
S[4,21] 0
S[4,22] 0
S[4,23] 0
S[4,24] 0
S[5,0] 0
S[5,1] 1
S[5,2] 0
S[5,3] 0
S[5,4] 0
S[5,5] 0
S[5,6] 0
S[5,7] 0
S[5,8] 0
S[5,9] 0
S[5,10] 0
S[5,11] 0
S[5,12] 0
S[5,13] 0
S[5,14] 0
S[5,15] 0
S[5,16] 0
S[5,17] 1
S[5,18] 0
S[5,19] 0
S[5,20] 0
S[5,21] 0
S[5,22] 0
S[5,23] 0
S[5,24] 0
S[6,0] 0
S[6,1] 1
S[6,2] 0
S[6,3] 0
S[6,4] 0
S[6,5] 0
S[6,6] 0
S[6,7] 0
S[6,8] 0
S[6,9] 0
S[6,10] 0
S[6,11] 0
S[6,12] 0
S[6,13] 0
S[6,14] 0
S[6,15] 0
S[6,16] 0
S[6,17] 1
S[6,18] 0
S[6,19] 0
S[6,20] 0
S[6,21] 0
S[6,22] 0
S[6,23] 0
S[6,24] 0
S[7,0] 0
S[7,1] 1
S[7,2] 0
S[7,3] 0
S[7,4] 0
S[7,5] 0
S[7,6] 0
S[7,7] 0
S[7,8] 0
S[7,9] 0
S[7,10] 0
S[7,11] 0
S[7,12] 0
S[7,13] 0
S[7,14] 0
S[7,15] 0
S[7,16] 0
S[7,17] 1
S[7,18] 0
S[7,19] 0
S[7,20] 0
S[7,21] 0
S[7,22] 0
S[7,23] 0
S[7,24] 0
